c 1,2,3,4,5,6,7,8,9
c dualiza/expensive/comul10.aig
p cnf 618 1748
-21 1 0
-21 2 0
21 -1 -2 0
-22 3 0
-22 4 0
22 -3 -4 0
-23 21 0
-23 22 0
23 -21 -22 0
-24 2 0
-24 5 0
24 -2 -5 0
-25 1 0
-25 4 0
25 -1 -4 0
-26 24 0
-26 25 0
26 -24 -25 0
-27 -24 0
-27 -25 0
27 24 25 0
-28 -26 0
-28 -27 0
28 26 27 0
-29 23 0
-29 28 0
29 -23 -28 0
-30 -23 0
-30 -28 0
30 23 28 0
-31 -29 0
-31 -30 0
31 29 30 0
-32 3 0
-32 6 0
32 -3 -6 0
-33 31 0
-33 32 0
33 -31 -32 0
-34 -26 0
-34 -29 0
34 26 29 0
-35 2 0
-35 7 0
35 -2 -7 0
-36 4 0
-36 5 0
36 -4 -5 0
-37 35 0
-37 36 0
37 -35 -36 0
-38 -35 0
-38 -36 0
38 35 36 0
-39 -37 0
-39 -38 0
39 37 38 0
-40 -34 0
-40 39 0
40 34 -39 0
-41 34 0
-41 -39 0
41 -34 39 0
-42 -40 0
-42 -41 0
42 40 41 0
-43 1 0
-43 6 0
43 -1 -6 0
-44 42 0
-44 43 0
44 -42 -43 0
-45 -42 0
-45 -43 0
45 42 43 0
-46 -44 0
-46 -45 0
46 44 45 0
-47 33 0
-47 46 0
47 -33 -46 0
-48 -33 0
-48 -46 0
48 33 46 0
-49 -47 0
-49 -48 0
49 47 48 0
-50 3 0
-50 8 0
50 -3 -8 0
-51 49 0
-51 50 0
51 -49 -50 0
-52 -44 0
-52 -47 0
52 44 47 0
-53 -37 0
-53 -40 0
53 37 40 0
-54 2 0
-54 9 0
54 -2 -9 0
-55 4 0
-55 7 0
55 -4 -7 0
-56 54 0
-56 55 0
56 -54 -55 0
-57 -54 0
-57 -55 0
57 54 55 0
-58 -56 0
-58 -57 0
58 56 57 0
-59 -53 0
-59 58 0
59 53 -58 0
-60 53 0
-60 -58 0
60 -53 58 0
-61 -59 0
-61 -60 0
61 59 60 0
-62 5 0
-62 6 0
62 -5 -6 0
-63 61 0
-63 62 0
63 -61 -62 0
-64 -61 0
-64 -62 0
64 61 62 0
-65 -63 0
-65 -64 0
65 63 64 0
-66 -52 0
-66 65 0
66 52 -65 0
-67 52 0
-67 -65 0
67 -52 65 0
-68 -66 0
-68 -67 0
68 66 67 0
-69 1 0
-69 8 0
69 -1 -8 0
-70 68 0
-70 69 0
70 -68 -69 0
-71 -68 0
-71 -69 0
71 68 69 0
-72 -70 0
-72 -71 0
72 70 71 0
-73 51 0
-73 72 0
73 -51 -72 0
-74 -51 0
-74 -72 0
74 51 72 0
-75 -73 0
-75 -74 0
75 73 74 0
-76 3 0
-76 10 0
76 -3 -10 0
-77 75 0
-77 76 0
77 -75 -76 0
-78 -70 0
-78 -73 0
78 70 73 0
-79 -63 0
-79 -66 0
79 63 66 0
-80 -56 0
-80 -59 0
80 56 59 0
-81 2 0
-81 11 0
81 -2 -11 0
-82 4 0
-82 9 0
82 -4 -9 0
-83 81 0
-83 82 0
83 -81 -82 0
-84 -81 0
-84 -82 0
84 81 82 0
-85 -83 0
-85 -84 0
85 83 84 0
-86 -80 0
-86 85 0
86 80 -85 0
-87 80 0
-87 -85 0
87 -80 85 0
-88 -86 0
-88 -87 0
88 86 87 0
-89 6 0
-89 7 0
89 -6 -7 0
-90 88 0
-90 89 0
90 -88 -89 0
-91 -88 0
-91 -89 0
91 88 89 0
-92 -90 0
-92 -91 0
92 90 91 0
-93 -79 0
-93 92 0
93 79 -92 0
-94 79 0
-94 -92 0
94 -79 92 0
-95 -93 0
-95 -94 0
95 93 94 0
-96 5 0
-96 8 0
96 -5 -8 0
-97 95 0
-97 96 0
97 -95 -96 0
-98 -95 0
-98 -96 0
98 95 96 0
-99 -97 0
-99 -98 0
99 97 98 0
-100 -78 0
-100 99 0
100 78 -99 0
-101 78 0
-101 -99 0
101 -78 99 0
-102 -100 0
-102 -101 0
102 100 101 0
-103 1 0
-103 10 0
103 -1 -10 0
-104 102 0
-104 103 0
104 -102 -103 0
-105 -102 0
-105 -103 0
105 102 103 0
-106 -104 0
-106 -105 0
106 104 105 0
-107 77 0
-107 106 0
107 -77 -106 0
-108 -77 0
-108 -106 0
108 77 106 0
-109 -107 0
-109 -108 0
109 107 108 0
-110 3 0
-110 12 0
110 -3 -12 0
-111 109 0
-111 110 0
111 -109 -110 0
-112 -104 0
-112 -107 0
112 104 107 0
-113 -97 0
-113 -100 0
113 97 100 0
-114 -90 0
-114 -93 0
114 90 93 0
-115 -83 0
-115 -86 0
115 83 86 0
-116 2 0
-116 13 0
116 -2 -13 0
-117 4 0
-117 11 0
117 -4 -11 0
-118 116 0
-118 117 0
118 -116 -117 0
-119 -116 0
-119 -117 0
119 116 117 0
-120 -118 0
-120 -119 0
120 118 119 0
-121 -115 0
-121 120 0
121 115 -120 0
-122 115 0
-122 -120 0
122 -115 120 0
-123 -121 0
-123 -122 0
123 121 122 0
-124 6 0
-124 9 0
124 -6 -9 0
-125 123 0
-125 124 0
125 -123 -124 0
-126 -123 0
-126 -124 0
126 123 124 0
-127 -125 0
-127 -126 0
127 125 126 0
-128 -114 0
-128 127 0
128 114 -127 0
-129 114 0
-129 -127 0
129 -114 127 0
-130 -128 0
-130 -129 0
130 128 129 0
-131 7 0
-131 8 0
131 -7 -8 0
-132 130 0
-132 131 0
132 -130 -131 0
-133 -130 0
-133 -131 0
133 130 131 0
-134 -132 0
-134 -133 0
134 132 133 0
-135 -113 0
-135 134 0
135 113 -134 0
-136 113 0
-136 -134 0
136 -113 134 0
-137 -135 0
-137 -136 0
137 135 136 0
-138 5 0
-138 10 0
138 -5 -10 0
-139 137 0
-139 138 0
139 -137 -138 0
-140 -137 0
-140 -138 0
140 137 138 0
-141 -139 0
-141 -140 0
141 139 140 0
-142 -112 0
-142 141 0
142 112 -141 0
-143 112 0
-143 -141 0
143 -112 141 0
-144 -142 0
-144 -143 0
144 142 143 0
-145 1 0
-145 12 0
145 -1 -12 0
-146 144 0
-146 145 0
146 -144 -145 0
-147 -144 0
-147 -145 0
147 144 145 0
-148 -146 0
-148 -147 0
148 146 147 0
-149 111 0
-149 148 0
149 -111 -148 0
-150 -111 0
-150 -148 0
150 111 148 0
-151 -149 0
-151 -150 0
151 149 150 0
-152 3 0
-152 14 0
152 -3 -14 0
-153 151 0
-153 152 0
153 -151 -152 0
-154 -146 0
-154 -149 0
154 146 149 0
-155 -139 0
-155 -142 0
155 139 142 0
-156 -132 0
-156 -135 0
156 132 135 0
-157 -125 0
-157 -128 0
157 125 128 0
-158 -118 0
-158 -121 0
158 118 121 0
-159 2 0
-159 15 0
159 -2 -15 0
-160 4 0
-160 13 0
160 -4 -13 0
-161 159 0
-161 160 0
161 -159 -160 0
-162 -159 0
-162 -160 0
162 159 160 0
-163 -161 0
-163 -162 0
163 161 162 0
-164 -158 0
-164 163 0
164 158 -163 0
-165 158 0
-165 -163 0
165 -158 163 0
-166 -164 0
-166 -165 0
166 164 165 0
-167 6 0
-167 11 0
167 -6 -11 0
-168 166 0
-168 167 0
168 -166 -167 0
-169 -166 0
-169 -167 0
169 166 167 0
-170 -168 0
-170 -169 0
170 168 169 0
-171 -157 0
-171 170 0
171 157 -170 0
-172 157 0
-172 -170 0
172 -157 170 0
-173 -171 0
-173 -172 0
173 171 172 0
-174 8 0
-174 9 0
174 -8 -9 0
-175 173 0
-175 174 0
175 -173 -174 0
-176 -173 0
-176 -174 0
176 173 174 0
-177 -175 0
-177 -176 0
177 175 176 0
-178 -156 0
-178 177 0
178 156 -177 0
-179 156 0
-179 -177 0
179 -156 177 0
-180 -178 0
-180 -179 0
180 178 179 0
-181 7 0
-181 10 0
181 -7 -10 0
-182 180 0
-182 181 0
182 -180 -181 0
-183 -180 0
-183 -181 0
183 180 181 0
-184 -182 0
-184 -183 0
184 182 183 0
-185 -155 0
-185 184 0
185 155 -184 0
-186 155 0
-186 -184 0
186 -155 184 0
-187 -185 0
-187 -186 0
187 185 186 0
-188 5 0
-188 12 0
188 -5 -12 0
-189 187 0
-189 188 0
189 -187 -188 0
-190 -187 0
-190 -188 0
190 187 188 0
-191 -189 0
-191 -190 0
191 189 190 0
-192 -154 0
-192 191 0
192 154 -191 0
-193 154 0
-193 -191 0
193 -154 191 0
-194 -192 0
-194 -193 0
194 192 193 0
-195 1 0
-195 14 0
195 -1 -14 0
-196 194 0
-196 195 0
196 -194 -195 0
-197 -194 0
-197 -195 0
197 194 195 0
-198 -196 0
-198 -197 0
198 196 197 0
-199 153 0
-199 198 0
199 -153 -198 0
-200 -153 0
-200 -198 0
200 153 198 0
-201 -199 0
-201 -200 0
201 199 200 0
-202 3 0
-202 16 0
202 -3 -16 0
-203 201 0
-203 202 0
203 -201 -202 0
-204 -196 0
-204 -199 0
204 196 199 0
-205 -189 0
-205 -192 0
205 189 192 0
-206 -182 0
-206 -185 0
206 182 185 0
-207 -175 0
-207 -178 0
207 175 178 0
-208 -168 0
-208 -171 0
208 168 171 0
-209 -161 0
-209 -164 0
209 161 164 0
-210 2 0
-210 17 0
210 -2 -17 0
-211 4 0
-211 15 0
211 -4 -15 0
-212 210 0
-212 211 0
212 -210 -211 0
-213 -210 0
-213 -211 0
213 210 211 0
-214 -212 0
-214 -213 0
214 212 213 0
-215 -209 0
-215 214 0
215 209 -214 0
-216 209 0
-216 -214 0
216 -209 214 0
-217 -215 0
-217 -216 0
217 215 216 0
-218 6 0
-218 13 0
218 -6 -13 0
-219 217 0
-219 218 0
219 -217 -218 0
-220 -217 0
-220 -218 0
220 217 218 0
-221 -219 0
-221 -220 0
221 219 220 0
-222 -208 0
-222 221 0
222 208 -221 0
-223 208 0
-223 -221 0
223 -208 221 0
-224 -222 0
-224 -223 0
224 222 223 0
-225 8 0
-225 11 0
225 -8 -11 0
-226 224 0
-226 225 0
226 -224 -225 0
-227 -224 0
-227 -225 0
227 224 225 0
-228 -226 0
-228 -227 0
228 226 227 0
-229 -207 0
-229 228 0
229 207 -228 0
-230 207 0
-230 -228 0
230 -207 228 0
-231 -229 0
-231 -230 0
231 229 230 0
-232 9 0
-232 10 0
232 -9 -10 0
-233 231 0
-233 232 0
233 -231 -232 0
-234 -231 0
-234 -232 0
234 231 232 0
-235 -233 0
-235 -234 0
235 233 234 0
-236 -206 0
-236 235 0
236 206 -235 0
-237 206 0
-237 -235 0
237 -206 235 0
-238 -236 0
-238 -237 0
238 236 237 0
-239 7 0
-239 12 0
239 -7 -12 0
-240 238 0
-240 239 0
240 -238 -239 0
-241 -238 0
-241 -239 0
241 238 239 0
-242 -240 0
-242 -241 0
242 240 241 0
-243 -205 0
-243 242 0
243 205 -242 0
-244 205 0
-244 -242 0
244 -205 242 0
-245 -243 0
-245 -244 0
245 243 244 0
-246 5 0
-246 14 0
246 -5 -14 0
-247 245 0
-247 246 0
247 -245 -246 0
-248 -245 0
-248 -246 0
248 245 246 0
-249 -247 0
-249 -248 0
249 247 248 0
-250 -204 0
-250 249 0
250 204 -249 0
-251 204 0
-251 -249 0
251 -204 249 0
-252 -250 0
-252 -251 0
252 250 251 0
-253 1 0
-253 16 0
253 -1 -16 0
-254 252 0
-254 253 0
254 -252 -253 0
-255 -252 0
-255 -253 0
255 252 253 0
-256 -254 0
-256 -255 0
256 254 255 0
-257 203 0
-257 256 0
257 -203 -256 0
-258 -203 0
-258 -256 0
258 203 256 0
-259 -257 0
-259 -258 0
259 257 258 0
-260 3 0
-260 18 0
260 -3 -18 0
-261 259 0
-261 260 0
261 -259 -260 0
-262 -254 0
-262 -257 0
262 254 257 0
-263 -247 0
-263 -250 0
263 247 250 0
-264 -240 0
-264 -243 0
264 240 243 0
-265 -233 0
-265 -236 0
265 233 236 0
-266 -226 0
-266 -229 0
266 226 229 0
-267 -219 0
-267 -222 0
267 219 222 0
-268 -212 0
-268 -215 0
268 212 215 0
-269 2 0
-269 19 0
269 -2 -19 0
-270 4 0
-270 17 0
270 -4 -17 0
-271 269 0
-271 270 0
271 -269 -270 0
-272 -269 0
-272 -270 0
272 269 270 0
-273 -271 0
-273 -272 0
273 271 272 0
-274 -268 0
-274 273 0
274 268 -273 0
-275 268 0
-275 -273 0
275 -268 273 0
-276 -274 0
-276 -275 0
276 274 275 0
-277 6 0
-277 15 0
277 -6 -15 0
-278 276 0
-278 277 0
278 -276 -277 0
-279 -276 0
-279 -277 0
279 276 277 0
-280 -278 0
-280 -279 0
280 278 279 0
-281 -267 0
-281 280 0
281 267 -280 0
-282 267 0
-282 -280 0
282 -267 280 0
-283 -281 0
-283 -282 0
283 281 282 0
-284 8 0
-284 13 0
284 -8 -13 0
-285 283 0
-285 284 0
285 -283 -284 0
-286 -283 0
-286 -284 0
286 283 284 0
-287 -285 0
-287 -286 0
287 285 286 0
-288 -266 0
-288 287 0
288 266 -287 0
-289 266 0
-289 -287 0
289 -266 287 0
-290 -288 0
-290 -289 0
290 288 289 0
-291 10 0
-291 11 0
291 -10 -11 0
-292 290 0
-292 291 0
292 -290 -291 0
-293 -290 0
-293 -291 0
293 290 291 0
-294 -292 0
-294 -293 0
294 292 293 0
-295 -265 0
-295 294 0
295 265 -294 0
-296 265 0
-296 -294 0
296 -265 294 0
-297 -295 0
-297 -296 0
297 295 296 0
-298 9 0
-298 12 0
298 -9 -12 0
-299 297 0
-299 298 0
299 -297 -298 0
-300 -297 0
-300 -298 0
300 297 298 0
-301 -299 0
-301 -300 0
301 299 300 0
-302 -264 0
-302 301 0
302 264 -301 0
-303 264 0
-303 -301 0
303 -264 301 0
-304 -302 0
-304 -303 0
304 302 303 0
-305 7 0
-305 14 0
305 -7 -14 0
-306 304 0
-306 305 0
306 -304 -305 0
-307 -304 0
-307 -305 0
307 304 305 0
-308 -306 0
-308 -307 0
308 306 307 0
-309 -263 0
-309 308 0
309 263 -308 0
-310 263 0
-310 -308 0
310 -263 308 0
-311 -309 0
-311 -310 0
311 309 310 0
-312 5 0
-312 16 0
312 -5 -16 0
-313 311 0
-313 312 0
313 -311 -312 0
-314 -311 0
-314 -312 0
314 311 312 0
-315 -313 0
-315 -314 0
315 313 314 0
-316 -262 0
-316 315 0
316 262 -315 0
-317 262 0
-317 -315 0
317 -262 315 0
-318 -316 0
-318 -317 0
318 316 317 0
-319 1 0
-319 18 0
319 -1 -18 0
-320 318 0
-320 319 0
320 -318 -319 0
-321 -318 0
-321 -319 0
321 318 319 0
-322 -320 0
-322 -321 0
322 320 321 0
-323 261 0
-323 322 0
323 -261 -322 0
-324 -261 0
-324 -322 0
324 261 322 0
-325 -323 0
-325 -324 0
325 323 324 0
-326 3 0
-326 20 0
326 -3 -20 0
-327 325 0
-327 326 0
327 -325 -326 0
-328 -325 0
-328 -326 0
328 325 326 0
-329 -327 0
-329 -328 0
329 327 328 0
-330 23 0
-330 28 0
330 -23 -28 0
-331 -23 0
-331 -28 0
331 23 28 0
-332 -330 0
-332 -331 0
332 330 331 0
-333 32 0
-333 332 0
333 -32 -332 0
-334 -26 0
-334 -330 0
334 26 330 0
-335 39 0
-335 -334 0
335 -39 334 0
-336 -39 0
-336 334 0
336 39 -334 0
-337 -335 0
-337 -336 0
337 335 336 0
-338 43 0
-338 337 0
338 -43 -337 0
-339 -43 0
-339 -337 0
339 43 337 0
-340 -338 0
-340 -339 0
340 338 339 0
-341 333 0
-341 340 0
341 -333 -340 0
-342 -333 0
-342 -340 0
342 333 340 0
-343 -341 0
-343 -342 0
343 341 342 0
-344 50 0
-344 343 0
344 -50 -343 0
-345 -338 0
-345 -341 0
345 338 341 0
-346 -37 0
-346 -335 0
346 37 335 0
-347 58 0
-347 -346 0
347 -58 346 0
-348 -58 0
-348 346 0
348 58 -346 0
-349 -347 0
-349 -348 0
349 347 348 0
-350 62 0
-350 349 0
350 -62 -349 0
-351 -62 0
-351 -349 0
351 62 349 0
-352 -350 0
-352 -351 0
352 350 351 0
-353 -345 0
-353 352 0
353 345 -352 0
-354 345 0
-354 -352 0
354 -345 352 0
-355 -353 0
-355 -354 0
355 353 354 0
-356 69 0
-356 355 0
356 -69 -355 0
-357 -69 0
-357 -355 0
357 69 355 0
-358 -356 0
-358 -357 0
358 356 357 0
-359 344 0
-359 358 0
359 -344 -358 0
-360 -344 0
-360 -358 0
360 344 358 0
-361 -359 0
-361 -360 0
361 359 360 0
-362 76 0
-362 361 0
362 -76 -361 0
-363 -356 0
-363 -359 0
363 356 359 0
-364 -350 0
-364 -353 0
364 350 353 0
-365 -56 0
-365 -347 0
365 56 347 0
-366 85 0
-366 -365 0
366 -85 365 0
-367 -85 0
-367 365 0
367 85 -365 0
-368 -366 0
-368 -367 0
368 366 367 0
-369 89 0
-369 368 0
369 -89 -368 0
-370 -89 0
-370 -368 0
370 89 368 0
-371 -369 0
-371 -370 0
371 369 370 0
-372 -364 0
-372 371 0
372 364 -371 0
-373 364 0
-373 -371 0
373 -364 371 0
-374 -372 0
-374 -373 0
374 372 373 0
-375 96 0
-375 374 0
375 -96 -374 0
-376 -96 0
-376 -374 0
376 96 374 0
-377 -375 0
-377 -376 0
377 375 376 0
-378 -363 0
-378 377 0
378 363 -377 0
-379 363 0
-379 -377 0
379 -363 377 0
-380 -378 0
-380 -379 0
380 378 379 0
-381 103 0
-381 380 0
381 -103 -380 0
-382 -103 0
-382 -380 0
382 103 380 0
-383 -381 0
-383 -382 0
383 381 382 0
-384 362 0
-384 383 0
384 -362 -383 0
-385 -362 0
-385 -383 0
385 362 383 0
-386 -384 0
-386 -385 0
386 384 385 0
-387 110 0
-387 386 0
387 -110 -386 0
-388 -381 0
-388 -384 0
388 381 384 0
-389 -375 0
-389 -378 0
389 375 378 0
-390 -369 0
-390 -372 0
390 369 372 0
-391 -83 0
-391 -366 0
391 83 366 0
-392 120 0
-392 -391 0
392 -120 391 0
-393 -120 0
-393 391 0
393 120 -391 0
-394 -392 0
-394 -393 0
394 392 393 0
-395 124 0
-395 394 0
395 -124 -394 0
-396 -124 0
-396 -394 0
396 124 394 0
-397 -395 0
-397 -396 0
397 395 396 0
-398 -390 0
-398 397 0
398 390 -397 0
-399 390 0
-399 -397 0
399 -390 397 0
-400 -398 0
-400 -399 0
400 398 399 0
-401 131 0
-401 400 0
401 -131 -400 0
-402 -131 0
-402 -400 0
402 131 400 0
-403 -401 0
-403 -402 0
403 401 402 0
-404 -389 0
-404 403 0
404 389 -403 0
-405 389 0
-405 -403 0
405 -389 403 0
-406 -404 0
-406 -405 0
406 404 405 0
-407 138 0
-407 406 0
407 -138 -406 0
-408 -138 0
-408 -406 0
408 138 406 0
-409 -407 0
-409 -408 0
409 407 408 0
-410 -388 0
-410 409 0
410 388 -409 0
-411 388 0
-411 -409 0
411 -388 409 0
-412 -410 0
-412 -411 0
412 410 411 0
-413 145 0
-413 412 0
413 -145 -412 0
-414 -145 0
-414 -412 0
414 145 412 0
-415 -413 0
-415 -414 0
415 413 414 0
-416 387 0
-416 415 0
416 -387 -415 0
-417 -387 0
-417 -415 0
417 387 415 0
-418 -416 0
-418 -417 0
418 416 417 0
-419 152 0
-419 418 0
419 -152 -418 0
-420 -413 0
-420 -416 0
420 413 416 0
-421 -407 0
-421 -410 0
421 407 410 0
-422 -401 0
-422 -404 0
422 401 404 0
-423 -395 0
-423 -398 0
423 395 398 0
-424 -118 0
-424 -392 0
424 118 392 0
-425 163 0
-425 -424 0
425 -163 424 0
-426 -163 0
-426 424 0
426 163 -424 0
-427 -425 0
-427 -426 0
427 425 426 0
-428 167 0
-428 427 0
428 -167 -427 0
-429 -167 0
-429 -427 0
429 167 427 0
-430 -428 0
-430 -429 0
430 428 429 0
-431 -423 0
-431 430 0
431 423 -430 0
-432 423 0
-432 -430 0
432 -423 430 0
-433 -431 0
-433 -432 0
433 431 432 0
-434 174 0
-434 433 0
434 -174 -433 0
-435 -174 0
-435 -433 0
435 174 433 0
-436 -434 0
-436 -435 0
436 434 435 0
-437 -422 0
-437 436 0
437 422 -436 0
-438 422 0
-438 -436 0
438 -422 436 0
-439 -437 0
-439 -438 0
439 437 438 0
-440 181 0
-440 439 0
440 -181 -439 0
-441 -181 0
-441 -439 0
441 181 439 0
-442 -440 0
-442 -441 0
442 440 441 0
-443 -421 0
-443 442 0
443 421 -442 0
-444 421 0
-444 -442 0
444 -421 442 0
-445 -443 0
-445 -444 0
445 443 444 0
-446 188 0
-446 445 0
446 -188 -445 0
-447 -188 0
-447 -445 0
447 188 445 0
-448 -446 0
-448 -447 0
448 446 447 0
-449 -420 0
-449 448 0
449 420 -448 0
-450 420 0
-450 -448 0
450 -420 448 0
-451 -449 0
-451 -450 0
451 449 450 0
-452 195 0
-452 451 0
452 -195 -451 0
-453 -195 0
-453 -451 0
453 195 451 0
-454 -452 0
-454 -453 0
454 452 453 0
-455 419 0
-455 454 0
455 -419 -454 0
-456 -419 0
-456 -454 0
456 419 454 0
-457 -455 0
-457 -456 0
457 455 456 0
-458 202 0
-458 457 0
458 -202 -457 0
-459 -452 0
-459 -455 0
459 452 455 0
-460 -446 0
-460 -449 0
460 446 449 0
-461 -440 0
-461 -443 0
461 440 443 0
-462 -434 0
-462 -437 0
462 434 437 0
-463 -428 0
-463 -431 0
463 428 431 0
-464 -161 0
-464 -425 0
464 161 425 0
-465 214 0
-465 -464 0
465 -214 464 0
-466 -214 0
-466 464 0
466 214 -464 0
-467 -465 0
-467 -466 0
467 465 466 0
-468 218 0
-468 467 0
468 -218 -467 0
-469 -218 0
-469 -467 0
469 218 467 0
-470 -468 0
-470 -469 0
470 468 469 0
-471 -463 0
-471 470 0
471 463 -470 0
-472 463 0
-472 -470 0
472 -463 470 0
-473 -471 0
-473 -472 0
473 471 472 0
-474 225 0
-474 473 0
474 -225 -473 0
-475 -225 0
-475 -473 0
475 225 473 0
-476 -474 0
-476 -475 0
476 474 475 0
-477 -462 0
-477 476 0
477 462 -476 0
-478 462 0
-478 -476 0
478 -462 476 0
-479 -477 0
-479 -478 0
479 477 478 0
-480 232 0
-480 479 0
480 -232 -479 0
-481 -232 0
-481 -479 0
481 232 479 0
-482 -480 0
-482 -481 0
482 480 481 0
-483 -461 0
-483 482 0
483 461 -482 0
-484 461 0
-484 -482 0
484 -461 482 0
-485 -483 0
-485 -484 0
485 483 484 0
-486 239 0
-486 485 0
486 -239 -485 0
-487 -239 0
-487 -485 0
487 239 485 0
-488 -486 0
-488 -487 0
488 486 487 0
-489 -460 0
-489 488 0
489 460 -488 0
-490 460 0
-490 -488 0
490 -460 488 0
-491 -489 0
-491 -490 0
491 489 490 0
-492 246 0
-492 491 0
492 -246 -491 0
-493 -246 0
-493 -491 0
493 246 491 0
-494 -492 0
-494 -493 0
494 492 493 0
-495 -459 0
-495 494 0
495 459 -494 0
-496 459 0
-496 -494 0
496 -459 494 0
-497 -495 0
-497 -496 0
497 495 496 0
-498 253 0
-498 497 0
498 -253 -497 0
-499 -253 0
-499 -497 0
499 253 497 0
-500 -498 0
-500 -499 0
500 498 499 0
-501 458 0
-501 500 0
501 -458 -500 0
-502 -458 0
-502 -500 0
502 458 500 0
-503 -501 0
-503 -502 0
503 501 502 0
-504 260 0
-504 503 0
504 -260 -503 0
-505 -498 0
-505 -501 0
505 498 501 0
-506 -492 0
-506 -495 0
506 492 495 0
-507 -486 0
-507 -489 0
507 486 489 0
-508 -480 0
-508 -483 0
508 480 483 0
-509 -474 0
-509 -477 0
509 474 477 0
-510 -468 0
-510 -471 0
510 468 471 0
-511 -212 0
-511 -465 0
511 212 465 0
-512 273 0
-512 -511 0
512 -273 511 0
-513 -273 0
-513 511 0
513 273 -511 0
-514 -512 0
-514 -513 0
514 512 513 0
-515 277 0
-515 514 0
515 -277 -514 0
-516 -277 0
-516 -514 0
516 277 514 0
-517 -515 0
-517 -516 0
517 515 516 0
-518 -510 0
-518 517 0
518 510 -517 0
-519 510 0
-519 -517 0
519 -510 517 0
-520 -518 0
-520 -519 0
520 518 519 0
-521 284 0
-521 520 0
521 -284 -520 0
-522 -284 0
-522 -520 0
522 284 520 0
-523 -521 0
-523 -522 0
523 521 522 0
-524 -509 0
-524 523 0
524 509 -523 0
-525 509 0
-525 -523 0
525 -509 523 0
-526 -524 0
-526 -525 0
526 524 525 0
-527 291 0
-527 526 0
527 -291 -526 0
-528 -291 0
-528 -526 0
528 291 526 0
-529 -527 0
-529 -528 0
529 527 528 0
-530 -508 0
-530 529 0
530 508 -529 0
-531 508 0
-531 -529 0
531 -508 529 0
-532 -530 0
-532 -531 0
532 530 531 0
-533 298 0
-533 532 0
533 -298 -532 0
-534 -298 0
-534 -532 0
534 298 532 0
-535 -533 0
-535 -534 0
535 533 534 0
-536 -507 0
-536 535 0
536 507 -535 0
-537 507 0
-537 -535 0
537 -507 535 0
-538 -536 0
-538 -537 0
538 536 537 0
-539 305 0
-539 538 0
539 -305 -538 0
-540 -305 0
-540 -538 0
540 305 538 0
-541 -539 0
-541 -540 0
541 539 540 0
-542 -506 0
-542 541 0
542 506 -541 0
-543 506 0
-543 -541 0
543 -506 541 0
-544 -542 0
-544 -543 0
544 542 543 0
-545 312 0
-545 544 0
545 -312 -544 0
-546 -312 0
-546 -544 0
546 312 544 0
-547 -545 0
-547 -546 0
547 545 546 0
-548 -505 0
-548 547 0
548 505 -547 0
-549 505 0
-549 -547 0
549 -505 547 0
-550 -548 0
-550 -549 0
550 548 549 0
-551 319 0
-551 550 0
551 -319 -550 0
-552 -319 0
-552 -550 0
552 319 550 0
-553 -551 0
-553 -552 0
553 551 552 0
-554 504 0
-554 553 0
554 -504 -553 0
-555 -504 0
-555 -553 0
555 504 553 0
-556 -554 0
-556 -555 0
556 554 555 0
-557 326 0
-557 556 0
557 -326 -556 0
-558 -326 0
-558 -556 0
558 326 556 0
-559 -557 0
-559 -558 0
559 557 558 0
560 -329 559 0
561 329 -559 0
-562 -560 0
-562 -561 0
-563 -259 0
-563 -260 0
563 259 260 0
-564 -261 0
-564 -563 0
564 261 563 0
-565 -260 0
-565 -503 0
565 260 503 0
-566 -504 0
-566 -565 0
566 504 565 0
567 -564 566 0
568 564 -566 0
-569 -567 0
-569 -568 0
-570 562 0
-570 569 0
-571 -201 0
-571 -202 0
571 201 202 0
-572 -203 0
-572 -571 0
572 203 571 0
-573 -202 0
-573 -457 0
573 202 457 0
-574 -458 0
-574 -573 0
574 458 573 0
575 -572 574 0
576 572 -574 0
-577 -575 0
-577 -576 0
-578 570 0
-578 577 0
-579 -151 0
-579 -152 0
579 151 152 0
-580 -153 0
-580 -579 0
580 153 579 0
-581 -152 0
-581 -418 0
581 152 418 0
-582 -419 0
-582 -581 0
582 419 581 0
583 -580 582 0
584 580 -582 0
-585 -583 0
-585 -584 0
-586 578 0
-586 585 0
-587 -109 0
-587 -110 0
587 109 110 0
-588 -111 0
-588 -587 0
588 111 587 0
-589 -110 0
-589 -386 0
589 110 386 0
-590 -387 0
-590 -589 0
590 387 589 0
591 -588 590 0
592 588 -590 0
-593 -591 0
-593 -592 0
-594 586 0
-594 593 0
-595 -75 0
-595 -76 0
595 75 76 0
-596 -77 0
-596 -595 0
596 77 595 0
-597 -76 0
-597 -361 0
597 76 361 0
-598 -362 0
-598 -597 0
598 362 597 0
599 -596 598 0
600 596 -598 0
-601 -599 0
-601 -600 0
-602 594 0
-602 601 0
-603 -49 0
-603 -50 0
603 49 50 0
-604 -51 0
-604 -603 0
604 51 603 0
-605 -50 0
-605 -343 0
605 50 343 0
-606 -344 0
-606 -605 0
606 344 605 0
607 -604 606 0
608 604 -606 0
-609 -607 0
-609 -608 0
-610 602 0
-610 609 0
-611 -31 0
-611 -32 0
611 31 32 0
-612 -33 0
-612 -611 0
612 33 611 0
-613 -32 0
-613 -332 0
613 32 332 0
-614 -333 0
-614 -613 0
614 333 613 0
615 -612 614 0
616 612 -614 0
-617 -615 0
-617 -616 0
-618 610 0
-618 617 0
618 0
